tsp_instances/TSP50/instance2.tsp
NODE_COORD_SECTION
0 21 20
1 55 156
2 74 88
3 120 176
4 142 57
5 100 84
6 69 100
7 188 168
8 196 58
9 70 171
10 106 61
11 140 187
12 24 132
13 67 38
14 151 169
15 64 104
16 136 196
17 163 169
18 99 6
19 40 46
20 71 82
21 123 122
22 88 73
23 87 64
24 82 94
25 69 29
26 73 84
27 186 73
28 155 54
29 72 153
30 33 140
31 96 15
32 195 149
33 104 160
34 72 4
35 122 140
36 60 99
37 183 167
38 46 46
39 111 61
40 76 79
41 54 179
42 93 77
43 160 49
44 122 138
45 42 175
46 61 144
47 107 50
48 195 14
49 174 118
