tsp_instances/TSP50/instance2.opt.tour
TOUR_SECTION
1
20
39
14
26
24
23
43
6
41
21
27
3
25
7
16
37
13
31
47
2
46
42
10
30
22
45
36
34
4
17
12
15
18
38
8
33
50
28
9
49
44
29
5
40
11
48
32
19
35
-1